p cnf 13 23
-13 12 -9 0
13 10 7 0
13 -10 3 0
-13 10 3 0
-13 5 -3 0
-12 -10 3 0
-12 -10 2 0
-11 -10 7 0
11 2 1 0
-10 -9 7 0
10 -6 -3 0
10 5 1 0
-10 -4 1 0
-9 8 -7 0
9 8 7 0
-9 8 5 0
-9 -8 4 0
8 6 -5 0
-6 -4 1 0
6 -4 -1 0
-5 3 -1 0
-4 2 1 0
-3 -2 1 0
